
Log started (V12.10.0.0) Fri Apr  9 00:22:25 2021


Problem 'asset.lp' read.
Read time = 0.00 sec. (0.09 ticks)
New value for default parallel thread count: 1
New value for time limit in seconds: 200
Version identifier: 12.10.0.0 | 2019-11-26 | 843d4de
CPXPARAM_Threads                                 1
CPXPARAM_TimeLimit                               200
Found incumbent of value -0.893923 after 0.00 sec. (0.04 ticks)
Tried aggregator 3 times.
MIP Presolve eliminated 221 rows and 75 columns.
MIP Presolve modified 617 coefficients.
Aggregator did 317 substitutions.
Reduced MIP has 348 rows, 430 columns, and 1764 nonzeros.
Reduced MIP has 387 binaries, 19 generals, 0 SOSs, and 0 indicators.
Presolve time = 0.00 sec. (3.21 ticks)
Probing fixed 15 vars, tightened 0 bounds.
Probing time = 0.00 sec. (1.23 ticks)
Cover probing fixed 0 vars, tightened 14 bounds.
Tried aggregator 1 time.
Detecting symmetries...
MIP Presolve eliminated 20 rows and 20 columns.
MIP Presolve modified 168 coefficients.
Reduced MIP has 328 rows, 410 columns, and 1591 nonzeros.
Reduced MIP has 367 binaries, 19 generals, 0 SOSs, and 0 indicators.
Presolve time = 0.00 sec. (1.68 ticks)
Probing time = 0.00 sec. (1.05 ticks)
Clique table members: 1099.
MIP emphasis: balance optimality and feasibility.
MIP search method: dynamic search.
Parallel mode: none, using 1 thread.
Root relaxation solution time = 0.00 sec. (2.54 ticks)

        Nodes                                         Cuts/
   Node  Left     Objective  IInf  Best Integer    Best Bound    ItCnt     Gap

*     0+    0                           -0.8939      295.1361              --- 
      0     0      268.7571   119       -0.8939      268.7571      240     --- 
      0     0      268.7425   119       -0.8939     Cuts: 159      394     --- 
      0     0      268.7347   119       -0.8939     Cuts: 182      534     --- 
      0     0      268.7305   119       -0.8939     Cuts: 182      641     --- 
      0     0      268.7258   119       -0.8939     Cuts: 120      753     --- 
      0     0      268.6085   119       -0.8939     Cuts: 111      993     --- 
Detecting symmetries...
      0     0      268.4793   119       -0.8939     Cuts: 121     1205     --- 
      0     0      268.4530   119       -0.8939     Cuts: 116     1348     --- 
      0     0      268.4278   119       -0.8939     Cuts: 131     1463     --- 
      0     0      268.4150   119       -0.8939     Cuts: 137     1514     --- 
*     0+    0                           20.3169      268.4150              --- 
      0     0        cutoff             20.3169      268.4150     1514     --- 
Detecting symmetries...
      0     2      268.4150   103       20.3169      268.4150     1514     --- 
Elapsed time = 0.15 sec. (146.06 ticks, tree = 0.01 MB, solutions = 1)
*    70+   67                          194.5470      267.3647            37.43%
*    77    67      integral     0      199.7636      267.3647     5355   33.84%
*   140+  100                          216.9907      267.3618            23.21%
*   300+  168                          225.9069      266.7563            18.08%
    384   245      252.3461    78      225.9069      265.6573    11857   17.60%
*   400+  259                          225.9143      265.6573            17.59%
    668   479      235.7732    69      225.9143      261.2896    18413   15.66%
    895   648      246.5905   106      225.9143      259.6632    25083   14.94%

Performing restart 1

Repeating presolve.
Tried aggregator 1 time.
MIP Presolve modified 309 coefficients.
Reduced MIP has 328 rows, 410 columns, and 1396 nonzeros.
Reduced MIP has 367 binaries, 19 generals, 0 SOSs, and 0 indicators.
Presolve time = 0.00 sec. (1.31 ticks)
Tried aggregator 1 time.
Reduced MIP has 328 rows, 410 columns, and 1396 nonzeros.
Reduced MIP has 367 binaries, 19 generals, 0 SOSs, and 0 indicators.
Presolve time = 0.00 sec. (1.06 ticks)
Represolve time = 0.01 sec. (6.12 ticks)
    992     0      255.1302   115      225.9143     Cuts: 133    28972   12.93%
    992     0      247.1420   115      225.9143     Cuts: 109    29138    9.40%
    992     0      245.1724   115      225.9143      Cuts: 77    29370    8.52%
    992     0      243.4650   115      225.9143      Cuts: 74    29522    7.77%
    992     0      243.2221   115      225.9143      Cuts: 46    29610    7.66%
    992     0      242.9005   115      225.9143      Cuts: 52    29709    7.52%
    992     0      242.6437   115      225.9143      Cuts: 43    29780    7.41%
    992     0      242.0488   115      225.9143      Cuts: 28    29857    7.14%
    992     0      241.7642   115      225.9143      Cuts: 43    29906    7.02%
    992     0      241.0575   115      225.9143      Cuts: 52    30000    6.70%
    992     0      240.8197   115      225.9143      Cuts: 54    30173    6.60%
    992     0      240.6380   115      225.9143      Cuts: 53    30295    6.52%
    992     0      240.4986   115      225.9143      Cuts: 58    30351    6.46%
    992     0      240.2863   115      225.9143      Cuts: 52    30466    6.36%
    992     0      240.1754   115      225.9143      Cuts: 37    30560    6.31%
    992     0      239.9577   115      225.9143      Cuts: 53    30685    6.22%
    992     0      239.9235   115      225.9143      Cuts: 53    30735    6.20%
    992     0      239.8595   115      225.9143      Cuts: 30    30765    6.17%
    992     0      239.8430   115      225.9143      Cuts: 31    30812    6.17%
    992     0      239.8282   115      225.9143       Cuts: 8    30829    6.16%
    992     0      239.8282   115      225.9143      Cuts: 13    30847    6.16%
    992     0      239.4378   115      225.9143      Cuts: 22    30985    5.99%
    992     0      239.3810   115      225.9143      Cuts: 38    31030    5.96%
    992     0      239.3305   115      225.9143      Cuts: 32    31086    5.94%
    992     0      239.2668   115      225.9143      Cuts: 29    31121    5.91%
    992     0      239.2218   115      225.9143      Cuts: 23    31158    5.89%
    992     0      239.1705   115      225.9143      Cuts: 31    31195    5.87%
    992     0      239.0302   115      225.9143      Cuts: 31    31302    5.81%
    992     0      239.0228   115      225.9143      Cuts: 23    31350    5.80%
*   992+    0                          225.9147      239.0228             5.80%
    992     0        cutoff            225.9147      239.0228    31350    5.80%
    992     2      239.0228   115      225.9147      239.0225    31350    5.80%
   1002    10      237.4600   102      225.9147      239.0207    32062    5.80%
*  1052+   35                          227.5428      237.4398             4.35%
   1052    37      227.5452    34      227.5428      237.4398    33600    4.35%
*  1132+   41                          232.6233      236.0739             1.48%
*  1145    53      integral     0      232.6238      236.0739    36423    1.48%
   1200    66      233.9089    63      232.6238      235.4089    37581    1.20%
*  1238    63      integral     0      232.6245      234.5881    38499    0.84%

GUB cover cuts applied:  7
Clique cuts applied:  36
Cover cuts applied:  3
Implied bound cuts applied:  16
Flow cuts applied:  10
Mixed integer rounding cuts applied:  22
Zero-half cuts applied:  42
Gomory fractional cuts applied:  3

Root node processing (before b&c):
  Real time             =    0.15 sec. (146.14 ticks)
Sequential b&c:
  Real time             =    2.43 sec. (2645.12 ticks)
                          ------------
Total (root+branch&cut) =    2.58 sec. (2791.26 ticks)

Solution pool: 12 solutions saved.

MIP - Integer optimal, tolerance (0.0001/1e-06):  Objective =  2.3262446416e+02
Current MIP best bound =  2.3262854301e+02 (gap = 0.00407885, 0.00%)
Solution time =    2.58 sec.  Iterations = 38850  Nodes = 1279 (63)
Deterministic time = 2791.26 ticks  (1083.65 ticks/sec)


Incumbent solution
Variable Name           Solution Value
F                           255.000000
f1                            0.935536
f2                           21.440000
y3                            1.000000
y58                           1.000000
y66                           1.000000
y88                           1.000000
y206                          1.000000
y187                          1.000000
y23                           1.000000
y20                           1.000000
y186                          1.000000
y129                          1.000000
y145                          1.000000
y128                          1.000000
y164                          1.000000
y185                          1.000000
y45                           1.000000
s3                            6.284117
s16                           6.000000
s58                           6.084471
s66                           6.759816
s84                           6.000000
s87                           6.000000
s88                           6.153815
s97                           6.000000
s109                          6.000000
s114                          6.000000
s206                          6.311569
s187                          7.018747
s73                           6.150000
s181                          6.180000
s23                           7.190848
s20                           6.330000
s77                           6.520000
s70                           6.560000
s94                           6.680000
s186                          7.666613
s129                          6.970000
s145                          7.510044
s128                          7.741404
s164                          7.984907
s185                          7.886991
s45                           7.649888
x104x66x1                     2.000000
x22x187x1                     1.000000
x22x23x1                      1.000000
x169x145x1                    1.000000
x169x45x1                     1.000000
x170x206x1                    1.000000
x156x88x1                     1.000000
x4x187x2                      1.000000
x4x129x2                      1.000000
x110x58x2                     1.000000
x82x88x2                      1.000000
x156x20x2                     1.000000
x174x3x2                      1.000000
x165x206x3                    1.000000
x165x129x3                    1.000000
x170x3x3                      1.000000
x18x23x3                      1.000000
x18x20x3                      1.000000
x174x58x3                     1.000000
x3x128x2                      1.000000
x3x185x3                      1.000000
x58x186x2                     1.000000
x58x128x3                     1.000000
x66x0x1                       2.000000
x88x164x1                     1.000000
x88x45x2                      1.000000
x206x0x1                      1.000000
x206x185x3                    1.000000
x187x0x1                      1.000000
x187x0x2                      1.000000
x23x0x1                       1.000000
x23x0x3                       1.000000
x20x186x2                     1.000000
x20x145x3                     1.000000
x186x0x2                      2.000000
x129x164x2                    1.000000
x129x0x3                      1.000000
x145x0x1                      1.000000
x145x0x3                      1.000000
x128x0x2                      1.000000
x128x0x3                      1.000000
x164x0x1                      1.000000
x164x0x2                      1.000000
x185x0x3                      2.000000
x45x0x1                       1.000000
x45x0x2                       1.000000
s104                          5.198641
z104z66z1                     1.000000
s4                            4.963370
z4z187z2                      1.000000
z4z186z2                      1.000000
z4z129z2                      1.000000
s165                          4.895758
z165z206z3                    1.000000
z165z70z3                     1.000000
z165z94z3                     1.000000
z165z129z3                    1.000000
z165z185z3                    1.000000
s22                           5.794323
z22z187z1                     1.000000
z22z23z1                      1.000000
s169                          5.982640
z169z145z1                    1.000000
z169z45z1                     1.000000
s110                          4.364910
z110z58z2                     1.000000
z110z186z2                    1.000000
s82                           4.087060
z82z16z2                      1.000000
z82z88z2                      1.000000
z82z109z2                     1.000000
z82z186z2                     1.000000
s170                          4.510550
z170z3z3                      1.000000
z170z206z1                    1.000000
z170z70z3                     1.000000
z170z94z3                     1.000000
z170z185z3                    1.000000
s18                           4.586430
z18z23z3                      1.000000
z18z20z3                      1.000000
z18z70z3                      1.000000
z18z94z3                      1.000000
z18z185z3                     1.000000
s156                          4.598240
z156z88z1                     1.000000
z156z20z2                     1.000000
z156z186z2                    1.000000
s174                          4.610780
z174z3z2                      1.000000
z174z58z3                     1.000000
z174z70z3                     1.000000
z174z94z3                     1.000000
z174z186z2                    1.000000
z174z185z3                    1.000000
z3z128z2                      1.000000
z3z185z3                      1.000000
z58z186z2                     1.000000
z58z128z3                     1.000000
z88z164z1                     1.000000
z88z45z2                      1.000000
z206z185z3                    1.000000
z20z186z2                     1.000000
z20z145z3                     1.000000
z129z164z2                    1.000000
All other variables in the range 1-823 are 0.
